* ENCODING=ISO-8859-1
NAME          CPLEX
ROWS
 N  obj1    
 G  c1      
 G  c2      
 G  c3      
 G  c4      
 G  c5      
 G  c6      
 G  c7      
 G  c8      
 G  c9      
 G  c10     
 G  c11     
 G  c12     
 G  c13     
 G  c14     
 G  c15     
 G  c16     
 G  c17     
 G  c18     
 G  c19     
 G  c20     
 G  c21     
 G  c22     
 G  c23     
 G  c24     
 G  c25     
 G  c26     
 G  c27     
 G  c28     
 G  c29     
 G  c30     
COLUMNS
    MARK0000  'MARKER'                 'INTORG'
    x1        obj1                            1
    x2        obj1                            1
    x2        c6                            746
    x2        c28                           449
    x2        c29                           506
    x3        obj1                            1
    x3        c9                            653
    x3        c21                           702
    x4        obj1                            1
    x4        c6                            460
    x4        c10                           472
    x4        c20                           275
    x5        obj1                            1
    x6        obj1                            1
    x6        c25                           359
    x7        obj1                            1
    x7        c24                           281
    x8        obj1                            1
    x8        c13                           443
    x8        c15                           913
    x8        c25                           390
    x9        obj1                            1
    x9        c4                            254
    x9        c26                           680
    x9        c29                           333
    x10       obj1                            1
    x10       c1                            292
    x10       c12                           926
    x10       c15                           521
    x10       c19                           688
    x10       c27                           196
    x11       obj1                            1
    x11       c7                            205
    x11       c22                           169
    x11       c23                           618
    x11       c26                           782
    x11       c28                           684
    x11       c30                           861
    x12       obj1                            1
    x13       obj1                            1
    x13       c1                            163
    x13       c14                           857
    x13       c26                           251
    x13       c27                           126
    x14       obj1                            1
    x15       obj1                            1
    x15       c26                           243
    x15       c30                           483
    x16       obj1                            1
    x16       c7                            635
    x16       c10                           931
    x16       c15                           404
    x16       c21                           322
    x16       c29                           659
    x17       obj1                            1
    x17       c18                           411
    x17       c28                           978
    x18       obj1                            1
    x18       c2                            512
    x18       c24                           299
    x18       c30                           262
    x19       obj1                            1
    x20       obj1                            1
    x21       obj1                            1
    x21       c3                            432
    x21       c7                            101
    x22       obj1                            1
    x22       c1                            222
    x22       c19                           709
    x22       c23                           413
    x23       obj1                            1
    x23       c16                           277
    x23       c27                           184
    x24       obj1                            1
    x24       c17                           565
    x24       c22                           155
    x24       c30                           634
    x25       obj1                            1
    x25       c5                            109
    x25       c8                            521
    x25       c9                            321
    x25       c10                           932
    x25       c20                           414
    x25       c28                           349
    x25       c30                           617
    x26       obj1                            1
    x26       c12                           263
    x26       c13                           838
    x26       c30                           191
    x27       obj1                            1
    x27       c12                           535
    x27       c15                           665
    x28       obj1                            1
    x28       c7                            253
    x28       c12                           323
    x28       c18                           545
    x29       obj1                            1
    x29       c2                            865
    x29       c24                           432
    x29       c27                           859
    x30       obj1                            1
    x30       c14                           464
    x30       c15                           178
    x30       c24                           926
    x31       obj1                            1
    x31       c19                           123
    x31       c24                           822
    x32       obj1                            1
    x32       c13                           827
    x32       c16                           627
    x32       c17                           431
    x33       obj1                            1
    x33       c12                           735
    x33       c18                           441
    x33       c21                           315
    x34       obj1                            1
    x34       c5                            950
    x34       c19                           380
    x34       c27                           581
    x34       c28                           140
    x35       obj1                            1
    x35       c2                            105
    x35       c20                           872
    x36       obj1                            1
    x36       c9                            967
    x36       c10                           864
    x36       c17                           955
    x36       c19                           111
    x37       obj1                            1
    x37       c3                            974
    x37       c8                            455
    x37       c16                           437
    x37       c20                           209
    x37       c26                           865
    x38       obj1                            1
    x38       c5                            492
    x38       c11                           710
    x39       obj1                            1
    x39       c10                           402
    x39       c15                           113
    x40       obj1                            1
    x40       c1                            880
    x40       c4                            585
    x40       c18                           243
    x41       obj1                            1
    x41       c7                            583
    x41       c15                           811
    x42       obj1                            1
    x42       c8                            123
    x42       c9                            142
    x42       c14                           154
    x43       obj1                            1
    x43       c5                            417
    x43       c13                           130
    x43       c17                           390
    x43       c24                           120
    x44       obj1                            1
    x44       c4                            354
    x44       c23                           492
    x44       c29                           421
    x45       obj1                            1
    x45       c6                            542
    x45       c11                           119
    x45       c17                           786
    x46       obj1                            1
    x46       c5                            372
    x46       c7                            633
    x47       obj1                            1
    x47       c29                           308
    x48       obj1                            1
    x48       c8                            643
    x48       c11                           817
    x48       c12                           141
    x48       c18                           975
    x48       c22                           430
    x49       obj1                            1
    x49       c8                            830
    x49       c21                           861
    x50       obj1                            1
    x50       c9                            924
    x50       c21                           901
    x50       c24                           508
    x51       obj1                            1
    x51       c7                            243
    x51       c24                           469
    x51       c29                           540
    x52       obj1                            1
    x52       c2                            397
    x52       c3                            238
    x52       c27                           215
    x53       obj1                            1
    x53       c5                            973
    x54       obj1                            1
    x54       c7                            481
    x54       c26                           838
    x54       c29                           906
    x55       obj1                            1
    x55       c25                           836
    x56       obj1                            1
    x56       c2                            262
    x57       obj1                            1
    x57       c1                            215
    x57       c10                           716
    x57       c26                           980
    x58       obj1                            1
    x58       c1                            542
    x58       c4                            114
    x58       c12                           144
    x58       c20                           151
    x58       c26                           418
    x58       c27                           638
    x59       obj1                            1
    x59       c1                            954
    x59       c5                            745
    x59       c7                            667
    x59       c11                           311
    x59       c12                           399
    x59       c17                           941
    x60       obj1                            1
    x60       c4                            583
    x60       c5                            522
    x60       c11                           644
    x60       c12                           893
    x60       c17                           769
    x60       c29                           327
    MARK0001  'MARKER'                 'INTEND'
RHS
    rhs       c1                           1634
    rhs       c2                           1071
    rhs       c3                            822
    rhs       c4                            945
    rhs       c5                           2290
    rhs       c6                            874
    rhs       c7                           1901
    rhs       c8                           1286
    rhs       c9                           1504
    rhs       c10                          2159
    rhs       c11                          1301
    rhs       c12                          2180
    rhs       c13                          1119
    rhs       c14                           738
    rhs       c15                          1803
    rhs       c16                           671
    rhs       c17                          2419
    rhs       c18                          1308
    rhs       c19                          1006
    rhs       c20                           961
    rhs       c21                          1551
    rhs       c22                           377
    rhs       c23                           762
    rhs       c24                          1929
    rhs       c25                           793
    rhs       c26                          2529
    rhs       c27                          1400
    rhs       c28                          1300
    rhs       c29                          2000
    rhs       c30                          1524
BOUNDS
 LI bnd       x1        0
 LI bnd       x2        0
 LI bnd       x3        0
 LI bnd       x4        0
 LI bnd       x5        0
 LI bnd       x6        0
 LI bnd       x7        0
 LI bnd       x8        0
 LI bnd       x9        0
 LI bnd       x10       0
 LI bnd       x11       0
 LI bnd       x12       0
 LI bnd       x13       0
 LI bnd       x14       0
 LI bnd       x15       0
 LI bnd       x16       0
 LI bnd       x17       0
 LI bnd       x18       0
 LI bnd       x19       0
 LI bnd       x20       0
 LI bnd       x21       0
 LI bnd       x22       0
 LI bnd       x23       0
 LI bnd       x24       0
 LI bnd       x25       0
 LI bnd       x26       0
 LI bnd       x27       0
 LI bnd       x28       0
 LI bnd       x29       0
 LI bnd       x30       0
 LI bnd       x31       0
 LI bnd       x32       0
 LI bnd       x33       0
 LI bnd       x34       0
 LI bnd       x35       0
 LI bnd       x36       0
 LI bnd       x37       0
 LI bnd       x38       0
 LI bnd       x39       0
 LI bnd       x40       0
 LI bnd       x41       0
 LI bnd       x42       0
 LI bnd       x43       0
 LI bnd       x44       0
 LI bnd       x45       0
 LI bnd       x46       0
 LI bnd       x47       0
 LI bnd       x48       0
 LI bnd       x49       0
 LI bnd       x50       0
 LI bnd       x51       0
 LI bnd       x52       0
 LI bnd       x53       0
 LI bnd       x54       0
 LI bnd       x55       0
 LI bnd       x56       0
 LI bnd       x57       0
 LI bnd       x58       0
 LI bnd       x59       0
 LI bnd       x60       0
ENDATA
